p tw 128 21121 2 
1 66 
1 67 
1 69 
1 71 
1 73 
1 75 
1 77 
1 79 
1 82 
1 83 
1 85 
1 88 
1 90 
1 91 
1 93 
1 96 
1 97 
1 100 
1 101 
1 103 
1 105 
1 107 
1 109 
1 111 
1 113 
1 116 
1 117 
1 119 
1 121 
1 123 
1 126 
1 127 
2 65 
2 68 
2 70 
2 72 
2 74 
2 76 
2 78 
2 80 
2 81 
2 84 
2 86 
2 87 
2 89 
2 92 
2 94 
2 95 
2 98 
2 99 
2 102 
2 104 
2 106 
2 108 
2 110 
2 112 
2 114 
2 115 
2 118 
2 120 
2 122 
2 124 
2 125 
2 128 
3 4 
3 66 
3 67 
3 69 
3 72 
3 73 
3 76 
3 77 
3 79 
3 82 
3 84 
3 86 
3 87 
3 89 
3 91 
3 94 
3 95 
3 98 
3 100 
3 101 
3 104 
3 105 
3 107 
3 110 
3 112 
3 114 
3 115 
3 118 
3 119 
3 121 
3 124 
3 126 
3 127 
4 65 
4 68 
4 70 
4 71 
4 74 
4 75 
4 78 
4 80 
4 81 
4 83 
4 85 
4 88 
4 90 
4 92 
4 93 
4 96 
4 97 
4 99 
4 102 
4 103 
4 106 
4 108 
4 109 
4 111 
4 113 
4 116 
4 117 
4 120 
4 122 
4 123 
4 125 
4 128 
5 6 
5 66 
5 68 
5 69 
5 71 
5 74 
5 76 
5 78 
5 80 
5 82 
5 84 
5 85 
5 88 
5 90 
5 91 
5 94 
5 96 
5 97 
5 100 
5 102 
5 104 
5 106 
5 108 
5 110 
5 111 
5 114 
5 116 
5 118 
5 119 
5 122 
5 124 
5 126 
5 127 
6 65 
6 67 
6 70 
6 72 
6 73 
6 75 
6 77 
6 79 
6 81 
6 83 
6 86 
6 87 
6 89 
6 92 
6 93 
6 95 
6 98 
6 99 
6 101 
6 103 
6 105 
6 107 
6 109 
6 112 
6 113 
6 115 
6 117 
6 120 
6 121 
6 123 
6 125 
6 128 
7 8 
7 66 
7 68 
7 70 
7 71 
7 74 
7 75 
7 77 
7 80 
7 81 
7 84 
7 85 
7 87 
7 89 
7 91 
7 93 
7 96 
7 98 
7 100 
7 101 
7 104 
7 105 
7 107 
7 109 
7 112 
7 113 
7 116 
7 118 
7 120 
7 122 
7 124 
7 125 
7 127 
8 65 
8 67 
8 69 
8 72 
8 73 
8 76 
8 78 
8 79 
8 82 
8 83 
8 86 
8 88 
8 90 
8 92 
8 94 
8 95 
8 97 
8 99 
8 102 
8 103 
8 106 
8 108 
8 110 
8 111 
8 114 
8 115 
8 117 
8 119 
8 121 
8 123 
8 126 
8 128 
9 10 
9 66 
9 67 
9 70 
9 72 
9 73 
9 75 
9 78 
9 80 
9 81 
9 84 
9 85 
9 88 
9 89 
9 91 
9 94 
9 95 
9 97 
9 100 
9 102 
9 104 
9 105 
9 108 
9 109 
9 112 
9 114 
9 116 
9 117 
9 119 
9 121 
9 123 
9 125 
9 128 
10 65 
10 68 
10 69 
10 71 
10 74 
10 76 
10 77 
10 79 
10 82 
10 83 
10 86 
10 87 
10 90 
10 92 
10 93 
10 96 
10 98 
10 99 
10 101 
10 103 
10 106 
10 107 
10 110 
10 111 
10 113 
10 115 
10 118 
10 120 
10 122 
10 124 
10 126 
10 127 
11 12 
11 65 
11 68 
11 69 
11 72 
11 74 
11 75 
11 77 
11 79 
11 81 
11 83 
11 85 
11 88 
11 90 
11 91 
11 94 
11 95 
11 98 
11 99 
11 101 
11 104 
11 105 
11 108 
11 110 
11 112 
11 113 
11 116 
11 117 
11 119 
11 122 
11 124 
11 126 
11 128 
12 66 
12 67 
12 70 
12 71 
12 73 
12 76 
12 78 
12 80 
12 82 
12 84 
12 86 
12 87 
12 89 
12 92 
12 93 
12 96 
12 97 
12 100 
12 102 
12 103 
12 106 
12 107 
12 109 
12 111 
12 114 
12 115 
12 118 
12 120 
12 121 
12 123 
12 125 
12 127 
13 14 
13 66 
13 68 
13 70 
13 72 
13 73 
13 76 
13 77 
13 80 
13 82 
13 84 
13 85 
13 87 
13 90 
13 92 
13 93 
13 95 
13 98 
13 99 
13 101 
13 104 
13 106 
13 108 
13 110 
13 111 
13 113 
13 116 
13 117 
13 119 
13 121 
13 123 
13 125 
13 127 
14 65 
14 67 
14 69 
14 71 
14 74 
14 75 
14 78 
14 79 
14 81 
14 83 
14 86 
14 88 
14 89 
14 91 
14 94 
14 96 
14 97 
14 100 
14 102 
14 103 
14 105 
14 107 
14 109 
14 112 
14 114 
14 115 
14 118 
14 120 
14 122 
14 124 
14 126 
14 128 
15 16 
15 66 
15 68 
15 69 
15 72 
15 74 
15 75 
15 77 
15 79 
15 81 
15 84 
15 86 
15 87 
15 90 
15 91 
15 93 
15 95 
15 97 
15 99 
15 102 
15 103 
15 106 
15 108 
15 109 
15 112 
15 114 
15 116 
15 118 
15 120 
15 121 
15 123 
15 126 
15 127 
16 65 
16 67 
16 70 
16 71 
16 73 
16 76 
16 78 
16 80 
16 82 
16 83 
16 85 
16 88 
16 89 
16 92 
16 94 
16 96 
16 98 
16 100 
16 101 
16 104 
16 105 
16 107 
16 110 
16 111 
16 113 
16 115 
16 117 
16 119 
16 122 
16 124 
16 125 
16 128 
17 18 
17 66 
17 68 
17 70 
17 71 
17 74 
17 75 
17 78 
17 79 
17 82 
17 83 
17 86 
17 87 
17 89 
17 92 
17 94 
17 95 
17 97 
17 100 
17 101 
17 104 
17 106 
17 108 
17 109 
17 112 
17 113 
17 115 
17 117 
17 119 
17 122 
17 123 
17 126 
17 127 
18 65 
18 67 
18 69 
18 72 
18 73 
18 76 
18 77 
18 80 
18 81 
18 84 
18 85 
18 88 
18 90 
18 91 
18 93 
18 96 
18 98 
18 99 
18 102 
18 103 
18 105 
18 107 
18 110 
18 111 
18 114 
18 116 
18 118 
18 120 
18 121 
18 124 
18 125 
18 128 
19 20 
19 65 
19 67 
19 70 
19 72 
19 74 
19 75 
19 77 
19 80 
19 81 
19 84 
19 86 
19 88 
19 89 
19 91 
19 93 
19 96 
19 98 
19 100 
19 101 
19 103 
19 106 
19 108 
19 110 
19 111 
19 114 
19 115 
19 117 
19 119 
19 122 
19 123 
19 126 
19 127 
20 66 
20 68 
20 69 
20 71 
20 73 
20 76 
20 78 
20 79 
20 82 
20 83 
20 85 
20 87 
20 90 
20 92 
20 94 
20 95 
20 97 
20 99 
20 102 
20 104 
20 105 
20 107 
20 109 
20 112 
20 113 
20 116 
20 118 
20 120 
20 121 
20 124 
20 125 
20 128 
21 22 
21 66 
21 68 
21 69 
21 72 
21 73 
21 75 
21 78 
21 80 
21 82 
21 83 
21 85 
21 87 
21 89 
21 91 
21 93 
21 95 
21 98 
21 100 
21 102 
21 103 
21 105 
21 108 
21 110 
21 111 
21 113 
21 115 
21 118 
21 120 
21 122 
21 123 
21 126 
21 128 
22 65 
22 67 
22 70 
22 71 
22 74 
22 76 
22 77 
22 79 
22 81 
22 84 
22 86 
22 88 
22 90 
22 92 
22 94 
22 96 
22 97 
22 99 
22 101 
22 104 
22 106 
22 107 
22 109 
22 112 
22 114 
22 116 
22 117 
22 119 
22 121 
22 124 
22 125 
22 127 
23 24 
23 65 
23 67 
23 69 
23 72 
23 73 
23 75 
23 77 
23 80 
23 82 
23 84 
23 85 
23 88 
23 90 
23 92 
23 94 
23 95 
23 97 
23 100 
23 101 
23 103 
23 106 
23 108 
23 109 
23 112 
23 113 
23 115 
23 118 
23 120 
23 122 
23 124 
23 125 
23 127 
24 66 
24 68 
24 70 
24 71 
24 74 
24 76 
24 78 
24 79 
24 81 
24 83 
24 86 
24 87 
24 89 
24 91 
24 93 
24 96 
24 98 
24 99 
24 102 
24 104 
24 105 
24 107 
24 110 
24 111 
24 114 
24 116 
24 117 
24 119 
24 121 
24 123 
24 126 
24 128 
25 26 
25 66 
25 67 
25 69 
25 71 
25 74 
25 76 
25 77 
25 80 
25 81 
25 83 
25 86 
25 87 
25 90 
25 92 
25 94 
25 95 
25 98 
25 100 
25 101 
25 103 
25 105 
25 108 
25 109 
25 111 
25 114 
25 116 
25 118 
25 119 
25 122 
25 123 
25 125 
25 128 
26 65 
26 68 
26 70 
26 72 
26 73 
26 75 
26 78 
26 79 
26 82 
26 84 
26 85 
26 88 
26 89 
26 91 
26 93 
26 96 
26 97 
26 99 
26 102 
26 104 
26 106 
26 107 
26 110 
26 112 
26 113 
26 115 
26 117 
26 120 
26 121 
26 124 
26 126 
26 127 
27 28 
27 65 
27 68 
27 70 
27 71 
27 73 
27 76 
27 77 
27 80 
27 81 
27 83 
27 86 
27 88 
27 89 
27 92 
27 93 
27 95 
27 97 
27 100 
27 102 
27 103 
27 105 
27 108 
27 110 
27 112 
27 113 
27 116 
27 118 
27 119 
27 121 
27 124 
27 126 
27 127 
28 66 
28 67 
28 69 
28 72 
28 74 
28 75 
28 78 
28 79 
28 82 
28 84 
28 85 
28 87 
28 90 
28 91 
28 94 
28 96 
28 98 
28 99 
28 101 
28 104 
28 106 
28 107 
28 109 
28 111 
28 114 
28 115 
28 117 
28 120 
28 122 
28 123 
28 125 
28 128 
29 30 
29 65 
29 68 
29 70 
29 72 
29 74 
29 76 
29 77 
29 79 
29 82 
29 84 
29 86 
29 88 
29 90 
29 91 
29 93 
29 95 
29 97 
29 100 
29 102 
29 104 
29 105 
29 107 
29 109 
29 111 
29 113 
29 115 
29 118 
29 119 
29 122 
29 123 
29 125 
29 128 
30 66 
30 67 
30 69 
30 71 
30 73 
30 75 
30 78 
30 80 
30 81 
30 83 
30 85 
30 87 
30 89 
30 92 
30 94 
30 96 
30 98 
30 99 
30 101 
30 103 
30 106 
30 108 
30 110 
30 112 
30 114 
30 116 
30 117 
30 120 
30 121 
30 124 
30 126 
30 127 
31 32 
31 65 
31 68 
31 69 
31 71 
31 73 
31 75 
31 77 
31 80 
31 82 
31 84 
31 86 
31 88 
31 89 
31 92 
31 94 
31 95 
31 98 
31 99 
31 102 
31 104 
31 105 
31 107 
31 109 
31 111 
31 114 
31 116 
31 117 
31 120 
31 122 
31 123 
31 126 
31 127 
32 66 
32 67 
32 70 
32 72 
32 74 
32 76 
32 78 
32 79 
32 81 
32 83 
32 85 
32 87 
32 90 
32 91 
32 93 
32 96 
32 97 
32 100 
32 101 
32 103 
32 106 
32 108 
32 110 
32 112 
32 113 
32 115 
32 118 
32 119 
32 121 
32 124 
32 125 
32 128 
33 34 
33 66 
33 68 
33 69 
33 72 
33 74 
33 75 
33 78 
33 80 
33 81 
33 83 
33 86 
33 88 
33 90 
33 92 
33 93 
33 95 
33 97 
33 100 
33 101 
33 104 
33 105 
33 107 
33 110 
33 111 
33 114 
33 115 
33 117 
33 120 
33 121 
33 124 
33 125 
33 127 
34 65 
34 67 
34 70 
34 71 
34 73 
34 76 
34 77 
34 79 
34 82 
34 84 
34 85 
34 87 
34 89 
34 91 
34 94 
34 96 
34 98 
34 99 
34 102 
34 103 
34 106 
34 108 
34 109 
34 112 
34 113 
34 116 
34 118 
34 119 
34 122 
34 123 
34 126 
34 128 
35 36 
35 65 
35 67 
35 70 
35 71 
35 74 
35 75 
35 78 
35 79 
35 82 
35 84 
35 86 
35 87 
35 90 
35 91 
35 94 
35 95 
35 98 
35 100 
35 102 
35 103 
35 105 
35 108 
35 110 
35 111 
35 113 
35 116 
35 117 
35 120 
35 121 
35 124 
35 125 
35 127 
36 66 
36 68 
36 69 
36 72 
36 73 
36 76 
36 77 
36 80 
36 81 
36 83 
36 85 
36 88 
36 89 
36 92 
36 93 
36 96 
36 97 
36 99 
36 101 
36 104 
36 106 
36 107 
36 109 
36 112 
36 114 
36 115 
36 118 
36 119 
36 122 
36 123 
36 126 
36 128 
37 38 
37 66 
37 67 
37 70 
37 71 
37 73 
37 75 
37 77 
37 79 
37 82 
37 83 
37 86 
37 88 
37 89 
37 91 
37 93 
37 95 
37 97 
37 99 
37 101 
37 104 
37 106 
37 108 
37 110 
37 111 
37 114 
37 116 
37 118 
37 120 
37 122 
37 124 
37 125 
37 128 
38 65 
38 68 
38 69 
38 72 
38 74 
38 76 
38 78 
38 80 
38 81 
38 84 
38 85 
38 87 
38 90 
38 92 
38 94 
38 96 
38 98 
38 100 
38 102 
38 103 
38 105 
38 107 
38 109 
38 112 
38 113 
38 115 
38 117 
38 119 
38 121 
38 123 
38 126 
38 127 
39 40 
39 66 
39 67 
39 70 
39 72 
39 74 
39 75 
39 77 
39 80 
39 82 
39 83 
39 86 
39 88 
39 90 
39 92 
39 94 
39 96 
39 98 
39 100 
39 102 
39 104 
39 106 
39 107 
39 110 
39 112 
39 113 
39 116 
39 118 
39 120 
39 121 
39 123 
39 126 
39 128 
40 65 
40 68 
40 69 
40 71 
40 73 
40 76 
40 78 
40 79 
40 81 
40 84 
40 85 
40 87 
40 89 
40 91 
40 93 
40 95 
40 97 
40 99 
40 101 
40 103 
40 105 
40 108 
40 109 
40 111 
40 114 
40 115 
40 117 
40 119 
40 122 
40 124 
40 125 
40 127 
41 42 
41 65 
41 67 
41 69 
41 72 
41 74 
41 76 
41 77 
41 79 
41 82 
41 83 
41 85 
41 87 
41 89 
41 92 
41 93 
41 96 
41 97 
41 100 
41 102 
41 104 
41 105 
41 108 
41 110 
41 112 
41 114 
41 116 
41 117 
41 120 
41 122 
41 123 
41 125 
41 127 
42 66 
42 68 
42 70 
42 71 
42 73 
42 75 
42 78 
42 80 
42 81 
42 84 
42 86 
42 88 
42 90 
42 91 
42 94 
42 95 
42 98 
42 99 
42 101 
42 103 
42 106 
42 107 
42 109 
42 111 
42 113 
42 115 
42 118 
42 119 
42 121 
42 124 
42 126 
42 128 
43 44 
43 65 
43 68 
43 69 
43 71 
43 73 
43 75 
43 77 
43 80 
43 82 
43 83 
43 86 
43 87 
43 90 
43 91 
43 93 
43 96 
43 98 
43 100 
43 102 
43 104 
43 106 
43 108 
43 109 
43 112 
43 114 
43 115 
43 117 
43 119 
43 121 
43 124 
43 125 
43 128 
44 66 
44 67 
44 70 
44 72 
44 74 
44 76 
44 78 
44 79 
44 81 
44 84 
44 85 
44 88 
44 89 
44 92 
44 94 
44 95 
44 97 
44 99 
44 101 
44 103 
44 105 
44 107 
44 110 
44 111 
44 113 
44 116 
44 118 
44 120 
44 122 
44 123 
44 126 
44 127 
45 46 
45 66 
45 67 
45 69 
45 71 
45 73 
45 75 
45 78 
45 79 
45 81 
45 84 
45 86 
45 88 
45 90 
45 92 
45 93 
45 96 
45 98 
45 99 
45 102 
45 104 
45 105 
45 108 
45 110 
45 112 
45 113 
45 115 
45 118 
45 119 
45 122 
45 123 
45 125 
45 127 
46 65 
46 68 
46 70 
46 72 
46 74 
46 76 
46 77 
46 80 
46 82 
46 83 
46 85 
46 87 
46 89 
46 91 
46 94 
46 95 
46 97 
46 100 
46 101 
46 103 
46 106 
46 107 
46 109 
46 111 
46 114 
46 116 
46 117 
46 120 
46 121 
46 124 
46 126 
46 128 
47 48 
47 66 
47 68 
47 70 
47 71 
47 73 
47 76 
47 77 
47 79 
47 81 
47 83 
47 85 
47 88 
47 90 
47 91 
47 94 
47 95 
47 98 
47 100 
47 102 
47 103 
47 106 
47 107 
47 110 
47 112 
47 114 
47 115 
47 117 
47 120 
47 122 
47 123 
47 125 
47 127 
48 65 
48 67 
48 69 
48 72 
48 74 
48 75 
48 78 
48 80 
48 82 
48 84 
48 86 
48 87 
48 89 
48 92 
48 93 
48 96 
48 97 
48 99 
48 101 
48 104 
48 105 
48 108 
48 109 
48 111 
48 113 
48 116 
48 118 
48 119 
48 121 
48 124 
48 126 
48 128 
49 50 
49 65 
49 68 
49 69 
49 72 
49 73 
49 76 
49 78 
49 79 
49 81 
49 83 
49 86 
49 88 
49 89 
49 91 
49 94 
49 96 
49 98 
49 100 
49 101 
49 104 
49 106 
49 108 
49 109 
49 111 
49 113 
49 116 
49 118 
49 120 
49 121 
49 123 
49 125 
49 127 
50 66 
50 67 
50 70 
50 71 
50 74 
50 75 
50 77 
50 80 
50 82 
50 84 
50 85 
50 87 
50 90 
50 92 
50 93 
50 95 
50 97 
50 99 
50 102 
50 103 
50 105 
50 107 
50 110 
50 112 
50 114 
50 115 
50 117 
50 119 
50 122 
50 124 
50 126 
50 128 
51 52 
51 66 
51 68 
51 70 
51 72 
51 73 
51 76 
51 78 
51 79 
51 82 
51 84 
51 86 
51 88 
51 90 
51 92 
51 93 
51 96 
51 98 
51 100 
51 101 
51 103 
51 105 
51 108 
51 109 
51 112 
51 114 
51 116 
51 117 
51 120 
51 122 
51 124 
51 126 
51 128 
52 65 
52 67 
52 69 
52 71 
52 74 
52 75 
52 77 
52 80 
52 81 
52 83 
52 85 
52 87 
52 89 
52 91 
52 94 
52 95 
52 97 
52 99 
52 102 
52 104 
52 106 
52 107 
52 110 
52 111 
52 113 
52 115 
52 118 
52 119 
52 121 
52 123 
52 125 
52 127 
53 54 
53 66 
53 68 
53 69 
53 72 
53 73 
53 75 
53 77 
53 79 
53 81 
53 84 
53 86 
53 87 
53 89 
53 92 
53 94 
53 96 
53 97 
53 100 
53 102 
53 103 
53 106 
53 107 
53 110 
53 111 
53 113 
53 116 
53 117 
53 119 
53 122 
53 124 
53 125 
53 128 
54 65 
54 67 
54 70 
54 71 
54 74 
54 76 
54 78 
54 80 
54 82 
54 83 
54 85 
54 88 
54 90 
54 91 
54 93 
54 95 
54 98 
54 99 
54 101 
54 104 
54 105 
54 108 
54 109 
54 112 
54 114 
54 115 
54 118 
54 120 
54 121 
54 123 
54 126 
54 127 
55 56 
55 65 
55 67 
55 70 
55 72 
55 73 
55 75 
55 78 
55 79 
55 81 
55 83 
55 85 
55 87 
55 90 
55 92 
55 93 
55 95 
55 98 
55 100 
55 102 
55 104 
55 106 
55 107 
55 109 
55 111 
55 114 
55 116 
55 118 
55 119 
55 122 
55 124 
55 126 
55 127 
56 66 
56 68 
56 69 
56 71 
56 74 
56 76 
56 77 
56 80 
56 82 
56 84 
56 86 
56 88 
56 89 
56 91 
56 94 
56 96 
56 97 
56 99 
56 101 
56 103 
56 105 
56 108 
56 110 
56 112 
56 113 
56 115 
56 117 
56 120 
56 121 
56 123 
56 125 
56 128 
57 58 
57 66 
57 67 
57 70 
57 72 
57 73 
57 76 
57 77 
57 80 
57 81 
57 83 
57 86 
57 87 
57 90 
57 91 
57 94 
57 96 
57 97 
57 99 
57 102 
57 104 
57 105 
57 108 
57 109 
57 111 
57 113 
57 115 
57 117 
57 120 
57 122 
57 124 
57 126 
57 127 
58 65 
58 68 
58 69 
58 71 
58 74 
58 75 
58 78 
58 79 
58 82 
58 84 
58 85 
58 88 
58 89 
58 92 
58 93 
58 95 
58 98 
58 100 
58 101 
58 103 
58 106 
58 107 
58 110 
58 112 
58 114 
58 116 
58 118 
58 119 
58 121 
58 123 
58 125 
58 128 
59 60 
59 65 
59 68 
59 70 
59 72 
59 73 
59 75 
59 78 
59 80 
59 82 
59 83 
59 86 
59 87 
59 90 
59 91 
59 94 
59 96 
59 97 
59 99 
59 101 
59 103 
59 105 
59 107 
59 110 
59 112 
59 114 
59 116 
59 118 
59 119 
59 122 
59 123 
59 125 
59 127 
60 66 
60 67 
60 69 
60 71 
60 74 
60 76 
60 77 
60 79 
60 81 
60 84 
60 85 
60 88 
60 89 
60 92 
60 93 
60 95 
60 98 
60 100 
60 102 
60 104 
60 106 
60 108 
60 109 
60 111 
60 113 
60 115 
60 117 
60 120 
60 121 
60 124 
60 126 
60 128 
61 62 
61 65 
61 68 
61 70 
61 71 
61 73 
61 75 
61 77 
61 79 
61 81 
61 84 
61 85 
61 87 
61 90 
61 92 
61 94 
61 96 
61 97 
61 100 
61 101 
61 104 
61 105 
61 108 
61 110 
61 111 
61 114 
61 115 
61 118 
61 120 
61 121 
61 123 
61 126 
61 128 
62 66 
62 67 
62 69 
62 72 
62 74 
62 76 
62 78 
62 80 
62 82 
62 83 
62 86 
62 88 
62 89 
62 91 
62 93 
62 95 
62 98 
62 99 
62 102 
62 103 
62 106 
62 107 
62 109 
62 112 
62 113 
62 116 
62 117 
62 119 
62 122 
62 124 
62 125 
62 127 
63 64 
63 65 
63 67 
63 69 
63 71 
63 73 
63 76 
63 78 
63 80 
63 81 
63 84 
63 86 
63 87 
63 90 
63 91 
63 93 
63 95 
63 97 
63 100 
63 101 
63 104 
63 106 
63 107 
63 110 
63 112 
63 113 
63 116 
63 117 
63 120 
63 122 
63 123 
63 126 
63 128 
64 66 
64 68 
64 70 
64 72 
64 74 
64 75 
64 77 
64 79 
64 82 
64 83 
64 85 
64 88 
64 89 
64 92 
64 94 
64 96 
64 98 
64 99 
64 102 
64 103 
64 105 
64 108 
64 109 
64 111 
64 114 
64 115 
64 118 
64 119 
64 121 
64 124 
64 125 
64 127 
65 66 
67 68 
69 70 
71 72 
73 74 
75 76 
77 78 
79 80 
81 82 
83 84 
85 86 
87 88 
89 90 
91 92 
93 94 
95 96 
97 98 
99 100 
101 102 
103 104 
105 106 
107 108 
109 110 
111 112 
113 114 
115 116 
117 118 
119 120 
121 122 
123 124 
125 126 
127 128 
